lab-1/zad-1/zad1.dat
data;

param n := 6;

end;
