lab-1/zad-1/zad1.out
Problem:    zad1
Rows:       7
Columns:    6
Non-zeros:  42
Status:     OPTIMAL
Objective:  cTx = 7.838528139 (MINimum)

   No.   Row name   St   Activity     Lower bound   Upper bound    Marginal
------ ------------ -- ------------- ------------- ------------- -------------
     1 cTx          B        7.83853                             
     2 ax_b[1]      NS          2.45          2.45             =             1 
     3 ax_b[2]      NS       1.59286       1.59286             =             1 
     4 ax_b[3]      NS       1.21786       1.21786             =             1 
     5 ax_b[4]      NS      0.995635      0.995635             =             1 
     6 ax_b[5]      NS      0.845635      0.845635             =             1 
     7 ax_b[6]      NS      0.736544      0.736544             =             1 

   No. Column name  St   Activity     Lower bound   Upper bound    Marginal
------ ------------ -- ------------- ------------- ------------- -------------
     1 x[1]         B              1             0               
     2 x[2]         B              1             0               
     3 x[3]         B              1             0               
     4 x[4]         B              1             0               
     5 x[5]         B              1             0               
     6 x[6]         B              1             0               

Karush-Kuhn-Tucker optimality conditions:

KKT.PE: max.abs.err = 2.22e-16 on row 4
        max.rel.err = 7.42e-17 on row 5
        High quality

KKT.PB: max.abs.err = 0.00e+00 on row 0
        max.rel.err = 0.00e+00 on row 0
        High quality

KKT.DE: max.abs.err = 4.44e-16 on column 1
        max.rel.err = 1.24e-16 on column 5
        High quality

KKT.DB: max.abs.err = 0.00e+00 on row 0
        max.rel.err = 0.00e+00 on row 0
        High quality

End of output
